36
100
79	1
76	1
74	1
70	2
69	1
67	1
66	2
65	1
64	1
62	1
61	1
60	1
55	1
54	1
52	1
47	3
44	1
42	1
41	2
40	1
39	3
38	1
36	2
35	1
34	2
32	1
31	2
29	1
26	1
24	3
23	2
22	2
21	1
14	1
13	1
11	1
